sat
(model
(define-fun |goto_symex::&92;guard#1| () Bool true)
(define-fun |goto_symex::&92;guard#2| () Bool false)
(define-fun |goto_symex::&92;guard#3| () Bool true)
(define-fun |goto_symex::&92;guard#4| () Bool false)
(define-fun |goto_symex::&92;guard#5| () Bool false)
(define-fun |__CPROVER_threads_exited#2| () (Array (_ BitVec 32) (_ BitVec 1)) ((as const (Array (_ BitVec 32) (_ BitVec 1))) #b0))
(define-fun |pthread_join::thread!0@1#1| () (_ BitVec 32) #b00000000000000000000000000000001)
(define-fun |goto_symex::&92;guard#6| () Bool false)
(define-fun |goto_symex::&92;guard#7| () Bool false)
(define-fun |goto_symex::&92;guard#8| () Bool true)
(define-fun |goto_symex::&92;guard#9| () Bool true)
(define-fun |goto_symex::&92;guard#10| () Bool true)
(define-fun |goto_symex::&92;guard#11| () Bool true)
(define-fun |goto_symex::&92;guard#12| () Bool true)
(define-fun |goto_symex::&92;guard#13| () Bool false)
(define-fun |goto_symex::&92;guard#14| () Bool false)
(define-fun |goto_symex::&92;guard#15| () Bool false)
(define-fun |goto_symex::&92;guard#16| () Bool false)
(define-fun |goto_symex::&92;guard#17| () Bool false)
(define-fun |__CPROVER_threads_exited#3| () (Array (_ BitVec 32) (_ BitVec 1)) ((as const (Array (_ BitVec 32) (_ BitVec 1))) #b0))
(define-fun |pthread_join::thread!1@1#1| () (_ BitVec 32) #b11110111111111111111111111011111)
(define-fun |goto_symex::&92;guard#18| () Bool false)
(define-fun |goto_symex::&92;guard#19| () Bool false)
(define-fun |goto_symex::&92;guard#20| () Bool false)
(define-fun |goto_symex::&92;guard#21| () Bool false)
(define-fun |goto_symex::&92;guard#22| () Bool true)
(define-fun |mutex#10| () (_ BitVec 320) #b00000000000000000000000000000000000000000000000000000000000000000000000000000000000000000000000000000000000000000000000000000000000000000000000000000000000000000000000000000000000000000000000000000000000000000000000000000000000000000000000000000000000000000000000000000000000000000000000000000000000000000000000000000000)
(define-fun |goto_symex::&92;guard#23| () Bool true)
(define-fun array_of.0 () (Array (_ BitVec 32) (_ BitVec 1)) ((as const (Array (_ BitVec 32) (_ BitVec 1))) #b0))
(define-fun array.1 () (Array (_ BitVec 32) (_ BitVec 8)) ((as const (Array (_ BitVec 32) (_ BitVec 8))) #b00000000))
(define-fun mutex () (_ BitVec 320) #b00000000000000000000000000000000000000000000000000000000000000000000000000000000000000000000000000000000000000000000000000000000000000000000000000000000000000000000000000000000000000000000000000000000000000000000000000000000000000000000000000000000000000000000000000000000000000000000000000000000000000000000000000000000)
(define-fun |nondet_symex::nondet1| () (_ BitVec 32) #b00000000100000000000000000000000)
(define-fun t1 () (_ BitVec 32) #b00000000000000000000000000000000)
(define-fun |module_init#return_value!0#0| () (_ BitVec 32) #b00000000000000000000000000000000)
(define-fun |pthread_create#return_value!0#0| () (_ BitVec 32) #b00000000000000000000000000000000)
(define-fun |pdev#5| () (_ BitVec 32) #b00000000000000000000000000000011)
(define-fun |mutex#4| () (_ BitVec 320) #b11111110111111011111101111011111001111110100000011110101100110111101111101000001010011111111101111011010101101111111111101111111111110111111111100001111101010011111111111111111111111000111111000111111111111111111000011111111111111111111111111111111110111111111111111111111111111111111111111111101111011111111101000000000)
(define-fun |pthread_mutex_destroy#return_value!0#0| () (_ BitVec 32) #b00000000000000000000000000000000)
(define-fun |module_init::$tmp::return_value___VERIFIER_nondet_int$1!0@1#3| () (_ BitVec 32) #b00000000000000000000000000000000)
(define-fun |t1#4| () (_ BitVec 32) #b00000000000000000000000000000001)
(define-fun |module_exit::1::status!0@1| () (_ BitVec 32) #b00000000000000000000000000000000)
(define-fun |__CPROVER_next_thread_id#3| () (_ BitVec 32) #b00000000000000000000000000000010)
(define-fun |pthread_join#return_value!0#0| () (_ BitVec 32) #b00000000000000000000000000000000)
(define-fun |mutex#7| () (_ BitVec 320) #b11011110110111111111101111101011001111111100000011101011100110111101111111000001101111111111111111011010110100011111111111111111111111111111111110011111101110111111111111111111111111001111111011111111111101110111000011111111111111111111111111011111110111111111111111111111111111111111111111111101011111111111111000000000)
(define-fun |pdev#8| () (_ BitVec 32) #b00000000000000000000000000000101)
(define-fun |pthread_create::1::this_thread_id!1@0#0| () (_ BitVec 32) #b00001000000000000000000000100000)
(define-fun |nondet_symex::nondet2| () (_ BitVec 32) #b00000000000000000000000000000000)
(define-fun |ldv_usb_state#3| () (_ BitVec 32) #b00000000000000000000000000000000)
(define-fun |nondet_symex::nondet3| () (_ BitVec 32) #b00000000000000000000000000000100)
(define-fun t2 () (_ BitVec 32) #b00000000000000000000000000000000)
(define-fun |__CPROVER_next_thread_id#4| () (_ BitVec 32) #b00000000000000000000000000000001)
(define-fun |ieee80211_register_hw::$tmp::return_value___VERIFIER_nondet_int$1!1@1#3| () (_ BitVec 32) #b00000000000000000000000000000000)
(define-fun |ath_ahb_probe::1::error!1@1#3| () (_ BitVec 32) #b00000000000000000000000000000000)
(define-fun |ath_ahb_probe::1::error!1@1#5| () (_ BitVec 32) #b00000000000000000000000000000000)
(define-fun |pdev#11| () (_ BitVec 32) #b00000000000000000000000000000111)
(define-fun |ieee80211_register_hw#return_value!1#6| () (_ BitVec 32) #b00000000000000000000000000000000)
(define-fun |ath_ahb_probe#return_value!1#6| () (_ BitVec 32) #b00000000000000000000000000000000)
(define-fun |thread_usb::1::probe_ret!1@1#1| () (_ BitVec 32) #b00000000000000000000000000000000)
(define-fun |ldv_usb_state#5| () (_ BitVec 32) #b00000000000000000000000100000000)
(define-fun |t2#4| () (_ BitVec 32) #b11110111111111111111111111011111)
(define-fun |ieee80211_deregister_hw::1::status!1@1| () (_ BitVec 32) #b00000000000000000000000000000000)
(define-fun |__CPROVER_next_thread_id#7| () (_ BitVec 32) #b11111111101011111111111111110111)
(define-fun |pdev#14| () (_ BitVec 32) #b00000000000000000000000000001000)
(define-fun |ldv_usb_state#7| () (_ BitVec 32) #b00000000100000000000000000000000)
(define-fun |thread_usb::$tmp::return_value___VERIFIER_nondet_int$1!1@1#8| () (_ BitVec 32) #b00000000000000000000000000000000)
(define-fun |thread_usb::$tmp::return_value___VERIFIER_nondet_int$1!1@1#3| () (_ BitVec 32) #b00000000000000000000000000000000)
(define-fun |pdev#17| () (_ BitVec 32) #b00000000000000000000000000001001)
(define-fun |__CPROVER_threads_exited#4| () (Array (_ BitVec 32) (_ BitVec 1)) ((as const (Array (_ BitVec 32) (_ BitVec 1))) #b0))
(define-fun |pthread_create::1::this_thread_id!2@0#0| () (_ BitVec 32) #b00000000000000000000000000000000)
(define-fun |nondet_symex::nondet4| () (_ BitVec 32) #b00000000000000000000000000000001)
(define-fun |mutex#9| () (_ BitVec 320) #b00000000000000000000000000000000000000000000000000000000000000000000000000000000000000000000000000000000000000000000000000000000000000000000000000000000000000000000000000000000000000000000000000000000000000000000000000000000000000000000000000000000000000000000000000000000000000000000000000000000000000000000000000000000)
(define-fun |pdev#20| () (_ BitVec 32) #b00000000000000000000000000000111)
(define-fun |mutex#12| () (_ BitVec 320) #b00000000000000000000000000000000000000000000000000000000000000000000000000000000000000000000000000000000000000000000000000000000000000000000000000000000000000000000000000000000000000000000000000000000000000000000000000000000000000000000000000000000000000000000000000000000000000000000000000000000000000000000000000000000)
(define-fun |__CPROVER_threads_exited#6| () (Array (_ BitVec 32) (_ BitVec 1)) ((as const (Array (_ BitVec 32) (_ BitVec 1))) #b0))
(define-fun |main::$tmp::return_value_module_init$1!0@1#1| () (_ BitVec 32) #b00000000000000000000000000000000)
(define-fun |module_init::$tmp::return_value___VERIFIER_nondet_int$1!0@1#1| () (_ BitVec 32) #b00000000000000000000000000000000)
(define-fun |pthread_create::1::this_thread_id!0@1#1| () (_ BitVec 32) #b00000000000000000000000000000000)
(define-fun |module_exit::1::status!0@1#1| () (_ BitVec 32) #b00000000000000000000000000000000)
(define-fun |thread_usb::$tmp::return_value___VERIFIER_nondet_int$1!1@1#1| () (_ BitVec 32) #b00000000000000000000000000000000)
(define-fun |ath_ahb_probe::1::error!1@1#1| () (_ BitVec 32) #b00000000000000000000000000000000)
(define-fun |ieee80211_register_hw::$tmp::return_value___VERIFIER_nondet_int$1!1@1#1| () (_ BitVec 32) #b00000000000000000000000000000000)
(define-fun |pthread_create::1::this_thread_id!1@1#1| () (_ BitVec 32) #b00000000000000000000000000000000)
(define-fun |ieee80211_deregister_hw::1::status!1@1#1| () (_ BitVec 32) #b00000000000000000000000000000000)
(define-fun |thread_ath9k::$tmp::return_value___VERIFIER_nondet_int$1!2@1#1| () (_ BitVec 32) #b00000000000000000000000000000000)
(define-fun |mutex#3| () (_ BitVec 320) #b00000000000000000000000000000000000000000000000000000000000000000000000000000000000000000000000000000000000000000000000000000000000000000000000000000000000000000000000000000000000000000000000000000000000000000000000000000000000000000000000000000000000000000000000000000000000000000000000000000000000000000000000000000000)
(define-fun |mutex#6| () (_ BitVec 320) #b00000000000000000000000000000000000000000000000000000000000000000000000000000000000000000000000000000000000000000000000000000000000000000000000000000000000000000000000000000000000000000000000000000000000000000000000000000000000000000000000000000000000000000000000000000000000000000000000000000000000000000000000000000000)
(define-fun |memory_model::choice_rf_0_30_0_9_T_0| () Bool true)
(define-fun |memory_model::choice_rf_0_30_1_26_T_1| () Bool false)
(define-fun |__CPROVER_threads_exited#5$wclk$8| () (_ BitVec 7) #b1111111)
(define-fun |__CPROVER_threads_exited#2$rclk$8| () (_ BitVec 7) #b1111001)
(define-fun |memory_model::choice_rf_0_30_2_8_T_2| () Bool false)
(define-fun |__CPROVER_threads_exited#7$wclk$8| () (_ BitVec 7) #b1111010)
(define-fun |memory_model::choice_rf_1_16_0_9_T_3| () Bool false)
(define-fun |__CPROVER_threads_exited#1$wclk$8| () (_ BitVec 7) #b0110010)
(define-fun |__CPROVER_threads_exited#3$rclk$8| () (_ BitVec 7) #b1101000)
(define-fun |memory_model::choice_rf_1_16_2_8_T_4| () Bool false)
(define-fun |memory_model::choice_rf_1_25_0_9_T_5| () Bool false)
(define-fun |__CPROVER_threads_exited#4$rclk$8| () (_ BitVec 7) #b1111110)
(define-fun |memory_model::choice_rf_1_25_2_8_T_6| () Bool false)
(define-fun |memory_model::choice_rf_2_7_0_9_T_7| () Bool false)
(define-fun |__CPROVER_threads_exited#6$rclk$8| () (_ BitVec 7) #b1101111)
(define-fun |memory_model::choice_rf_2_7_1_26_T_8| () Bool false)
(define-fun |memory_model::choice_rf_0_29_0_7_T_9| () Bool false)
(define-fun |memory_model::choice_rf_0_29_0_17_T_10| () Bool false)
(define-fun |memory_model::choice_rf_0_29_1_4_T_11| () Bool true)
(define-fun |__CPROVER_next_thread_id#6$wclk$8| () (_ BitVec 7) #b1010100)
(define-fun |__CPROVER_next_thread_id#3$rclk$8| () (_ BitVec 7) #b1111000)
(define-fun |memory_model::choice_rf_1_3_0_7_T_12| () Bool false)
(define-fun |__CPROVER_next_thread_id#1$wclk$8| () (_ BitVec 7) #b0010100)
(define-fun |__CPROVER_next_thread_id#4$rclk$8| () (_ BitVec 7) #b1010100)
(define-fun |memory_model::choice_rf_1_3_0_17_T_13| () Bool true)
(define-fun |__CPROVER_next_thread_id#2$wclk$8| () (_ BitVec 7) #b0111110)
(define-fun |memory_model::choice_rf_1_15_0_7_T_14| () Bool false)
(define-fun |__CPROVER_next_thread_id#7$rclk$8| () (_ BitVec 7) #b1100111)
(define-fun |memory_model::choice_rf_1_15_0_17_T_15| () Bool false)
(define-fun |memory_model::choice_rf_1_15_1_4_T_16| () Bool false)
(define-fun |t1#3| () (_ BitVec 32) #b00000000000000000000000000000001)
(define-fun |memory_model::choice_rf_0_27_0_13_F_17| () Bool false)
(define-fun |memory_model::choice_rf_0_27_0_18_F_18| () Bool true)
(define-fun |memory_model::choice_rf_0_28_0_13_F_19| () Bool false)
(define-fun |memory_model::choice_rf_0_28_0_18_F_20| () Bool true)
(define-fun |t2#3| () (_ BitVec 32) #b00000000000000000000000000000000)
(define-fun |memory_model::choice_rf_1_13_0_14_F_21| () Bool false)
(define-fun |t2#1$wclk$8| () (_ BitVec 7) #b0111011)
(define-fun |t2#3$rclk$8| () (_ BitVec 7) #b1100100)
(define-fun |memory_model::choice_rf_1_13_1_5_F_22| () Bool false)
(define-fun |memory_model::choice_rf_1_14_0_14_F_23| () Bool false)
(define-fun |t2#4$rclk$8| () (_ BitVec 7) #b1100110)
(define-fun |memory_model::choice_rf_1_14_1_5_F_24| () Bool false)
(define-fun |memory_model::choice_rf_0_23_0_11_F_25| () Bool false)
(define-fun |memory_model::choice_rf_0_23_0_15_F_26| () Bool false)
(define-fun |memory_model::choice_rf_0_23_2_1_F_27| () Bool false)
(define-fun |mutex#11$wclk$8| () (_ BitVec 7) #b1011100)
(define-fun |mutex#3$rclk$8| () (_ BitVec 7) #b1110010)
(define-fun |memory_model::choice_rf_0_23_2_6_F_28| () Bool false)
(define-fun |mutex#14$wclk$8| () (_ BitVec 7) #b1101101)
(define-fun |memory_model::choice_rf_0_24_0_11_F_29| () Bool false)
(define-fun |memory_model::choice_rf_0_24_0_15_F_30| () Bool false)
(define-fun |memory_model::choice_rf_0_24_2_1_F_31| () Bool false)
(define-fun |mutex#4$rclk$8| () (_ BitVec 7) #b1110011)
(define-fun |memory_model::choice_rf_0_24_2_6_F_32| () Bool false)
(define-fun |memory_model::choice_rf_0_31_0_11_F_33| () Bool false)
(define-fun |memory_model::choice_rf_0_31_0_15_F_34| () Bool false)
(define-fun |memory_model::choice_rf_0_31_0_25_F_35| () Bool false)
(define-fun |memory_model::choice_rf_0_31_2_1_F_36| () Bool false)
(define-fun |mutex#6$rclk$8| () (_ BitVec 7) #b1111010)
(define-fun |memory_model::choice_rf_0_31_2_6_F_37| () Bool false)
(define-fun |memory_model::choice_rf_0_32_0_11_F_38| () Bool false)
(define-fun |memory_model::choice_rf_0_32_0_15_F_39| () Bool false)
(define-fun |memory_model::choice_rf_0_32_0_25_F_40| () Bool false)
(define-fun |memory_model::choice_rf_0_32_2_1_F_41| () Bool false)
(define-fun |mutex#7$rclk$8| () (_ BitVec 7) #b1111011)
(define-fun |memory_model::choice_rf_0_32_2_6_F_42| () Bool false)
(define-fun |memory_model::choice_rf_2_0_0_11_F_43| () Bool false)
(define-fun |mutex#1$wclk$8| () (_ BitVec 7) #b0111000)
(define-fun |mutex#9$rclk$8| () (_ BitVec 7) #b1011100)
(define-fun |memory_model::choice_rf_2_0_0_15_F_44| () Bool true)
(define-fun |mutex#2$wclk$8| () (_ BitVec 7) #b0111100)
(define-fun |memory_model::choice_rf_2_0_0_25_F_45| () Bool false)
(define-fun |mutex#5$wclk$8| () (_ BitVec 7) #b1110100)
(define-fun |memory_model::choice_rf_2_0_0_33_F_46| () Bool false)
(define-fun |mutex#8$wclk$8| () (_ BitVec 7) #b1111100)
(define-fun |memory_model::choice_rf_2_5_0_11_F_47| () Bool false)
(define-fun |mutex#12$rclk$8| () (_ BitVec 7) #b1101101)
(define-fun |memory_model::choice_rf_2_5_0_15_F_48| () Bool false)
(define-fun |memory_model::choice_rf_2_5_0_25_F_49| () Bool false)
(define-fun |memory_model::choice_rf_2_5_0_33_F_50| () Bool false)
(define-fun |memory_model::choice_rf_2_5_2_1_F_51| () Bool false)
(define-fun |pdev#4| () (_ BitVec 32) #b00000000000000000000000000000000)
(define-fun |memory_model::choice_rf_0_21_0_12_F_52| () Bool false)
(define-fun |memory_model::choice_rf_0_21_0_16_F_53| () Bool false)
(define-fun |memory_model::choice_rf_0_21_0_20_F_54| () Bool false)
(define-fun |memory_model::choice_rf_0_21_1_8_F_55| () Bool false)
(define-fun |pdev#9$wclk$8| () (_ BitVec 7) #b1011111)
(define-fun |pdev#4$rclk$8| () (_ BitVec 7) #b1110000)
(define-fun |memory_model::choice_rf_0_21_1_18_F_56| () Bool false)
(define-fun |pdev#12$wclk$8| () (_ BitVec 7) #b1101010)
(define-fun |memory_model::choice_rf_0_21_1_22_F_57| () Bool false)
(define-fun |pdev#15$wclk$8| () (_ BitVec 7) #b1101110)
(define-fun |memory_model::choice_rf_0_21_2_2_F_58| () Bool false)
(define-fun |pdev#18$wclk$8| () (_ BitVec 7) #b1011101)
(define-fun |memory_model::choice_rf_0_22_0_12_F_59| () Bool false)
(define-fun |memory_model::choice_rf_0_22_0_16_F_60| () Bool false)
(define-fun |memory_model::choice_rf_0_22_0_20_F_61| () Bool false)
(define-fun |memory_model::choice_rf_0_22_1_8_F_62| () Bool false)
(define-fun |pdev#5$rclk$8| () (_ BitVec 7) #b1110001)
(define-fun |memory_model::choice_rf_0_22_1_18_F_63| () Bool false)
(define-fun |memory_model::choice_rf_0_22_1_22_F_64| () Bool false)
(define-fun |memory_model::choice_rf_0_22_2_2_F_65| () Bool false)
(define-fun |pdev#7| () (_ BitVec 32) #b00000000000000000000000000000000)
(define-fun |memory_model::choice_rf_0_35_0_12_F_66| () Bool false)
(define-fun |memory_model::choice_rf_0_35_0_16_F_67| () Bool false)
(define-fun |memory_model::choice_rf_0_35_0_20_F_68| () Bool false)
(define-fun |memory_model::choice_rf_0_35_0_34_F_69| () Bool false)
(define-fun |memory_model::choice_rf_0_35_1_8_F_70| () Bool false)
(define-fun |pdev#7$rclk$8| () (_ BitVec 7) #b1111110)
(define-fun |memory_model::choice_rf_0_35_1_18_F_71| () Bool false)
(define-fun |memory_model::choice_rf_0_35_1_22_F_72| () Bool false)
(define-fun |memory_model::choice_rf_0_35_2_2_F_73| () Bool false)
(define-fun |memory_model::choice_rf_0_36_0_12_F_74| () Bool false)
(define-fun |memory_model::choice_rf_0_36_0_16_F_75| () Bool false)
(define-fun |memory_model::choice_rf_0_36_0_20_F_76| () Bool false)
(define-fun |memory_model::choice_rf_0_36_0_34_F_77| () Bool false)
(define-fun |memory_model::choice_rf_0_36_1_8_F_78| () Bool false)
(define-fun |pdev#8$rclk$8| () (_ BitVec 7) #b1111111)
(define-fun |memory_model::choice_rf_0_36_1_18_F_79| () Bool false)
(define-fun |memory_model::choice_rf_0_36_1_22_F_80| () Bool false)
(define-fun |memory_model::choice_rf_0_36_2_2_F_81| () Bool false)
(define-fun |pdev#10| () (_ BitVec 32) #b00000000000000000000000000000111)
(define-fun |memory_model::choice_rf_1_9_0_12_F_82| () Bool false)
(define-fun |pdev#1$wclk$8| () (_ BitVec 7) #b0111001)
(define-fun |pdev#10$rclk$8| () (_ BitVec 7) #b1100000)
(define-fun |memory_model::choice_rf_1_9_0_16_F_83| () Bool false)
(define-fun |pdev#2$wclk$8| () (_ BitVec 7) #b0111101)
(define-fun |memory_model::choice_rf_1_9_0_20_F_84| () Bool false)
(define-fun |pdev#3$wclk$8| () (_ BitVec 7) #b1101111)
(define-fun |memory_model::choice_rf_1_9_0_34_F_85| () Bool false)
(define-fun |pdev#6$wclk$8| () (_ BitVec 7) #b1111101)
(define-fun |memory_model::choice_rf_1_9_1_8_F_86| () Bool true)
(define-fun |memory_model::choice_rf_1_9_2_2_F_87| () Bool false)
(define-fun |memory_model::choice_rf_1_10_0_12_F_88| () Bool false)
(define-fun |pdev#11$rclk$8| () (_ BitVec 7) #b1100001)
(define-fun |memory_model::choice_rf_1_10_0_16_F_89| () Bool false)
(define-fun |memory_model::choice_rf_1_10_0_20_F_90| () Bool false)
(define-fun |memory_model::choice_rf_1_10_0_34_F_91| () Bool false)
(define-fun |memory_model::choice_rf_1_10_1_8_F_92| () Bool true)
(define-fun |memory_model::choice_rf_1_10_2_2_F_93| () Bool false)
(define-fun |pdev#13| () (_ BitVec 32) #b00000000000000000000000000000000)
(define-fun |memory_model::choice_rf_1_19_0_12_F_94| () Bool false)
(define-fun |pdev#13$rclk$8| () (_ BitVec 7) #b1101011)
(define-fun |memory_model::choice_rf_1_19_0_16_F_95| () Bool false)
(define-fun |memory_model::choice_rf_1_19_0_20_F_96| () Bool false)
(define-fun |memory_model::choice_rf_1_19_0_34_F_97| () Bool false)
(define-fun |memory_model::choice_rf_1_19_1_8_F_98| () Bool false)
(define-fun |memory_model::choice_rf_1_19_1_18_F_99| () Bool false)
(define-fun |memory_model::choice_rf_1_19_2_2_F_100| () Bool false)
(define-fun |memory_model::choice_rf_1_20_0_12_F_101| () Bool false)
(define-fun |pdev#14$rclk$8| () (_ BitVec 7) #b1101100)
(define-fun |memory_model::choice_rf_1_20_0_16_F_102| () Bool false)
(define-fun |memory_model::choice_rf_1_20_0_20_F_103| () Bool false)
(define-fun |memory_model::choice_rf_1_20_0_34_F_104| () Bool false)
(define-fun |memory_model::choice_rf_1_20_1_8_F_105| () Bool false)
(define-fun |memory_model::choice_rf_1_20_1_18_F_106| () Bool false)
(define-fun |memory_model::choice_rf_1_20_2_2_F_107| () Bool false)
(define-fun |pdev#16| () (_ BitVec 32) #b00000000000000000000000000000000)
(define-fun |memory_model::choice_rf_1_23_0_12_F_108| () Bool false)
(define-fun |pdev#16$rclk$8| () (_ BitVec 7) #b1101111)
(define-fun |memory_model::choice_rf_1_23_0_16_F_109| () Bool false)
(define-fun |memory_model::choice_rf_1_23_0_20_F_110| () Bool false)
(define-fun |memory_model::choice_rf_1_23_0_34_F_111| () Bool false)
(define-fun |memory_model::choice_rf_1_23_1_8_F_112| () Bool false)
(define-fun |memory_model::choice_rf_1_23_1_18_F_113| () Bool false)
(define-fun |memory_model::choice_rf_1_23_1_22_F_114| () Bool false)
(define-fun |memory_model::choice_rf_1_23_2_2_F_115| () Bool false)
(define-fun |memory_model::choice_rf_1_24_0_12_F_116| () Bool false)
(define-fun |pdev#17$rclk$8| () (_ BitVec 7) #b1111101)
(define-fun |memory_model::choice_rf_1_24_0_16_F_117| () Bool false)
(define-fun |memory_model::choice_rf_1_24_0_20_F_118| () Bool false)
(define-fun |memory_model::choice_rf_1_24_0_34_F_119| () Bool false)
(define-fun |memory_model::choice_rf_1_24_1_8_F_120| () Bool false)
(define-fun |memory_model::choice_rf_1_24_1_18_F_121| () Bool false)
(define-fun |memory_model::choice_rf_1_24_1_22_F_122| () Bool false)
(define-fun |memory_model::choice_rf_1_24_2_2_F_123| () Bool false)
(define-fun |pdev#19| () (_ BitVec 32) #b00000000000000000000000000000110)
(define-fun |memory_model::choice_rf_2_3_0_12_F_124| () Bool false)
(define-fun |pdev#19$rclk$8| () (_ BitVec 7) #b1011110)
(define-fun |memory_model::choice_rf_2_3_0_16_F_125| () Bool false)
(define-fun |memory_model::choice_rf_2_3_0_20_F_126| () Bool false)
(define-fun |memory_model::choice_rf_2_3_0_34_F_127| () Bool false)
(define-fun |memory_model::choice_rf_2_3_1_8_F_128| () Bool false)
(define-fun |memory_model::choice_rf_2_3_1_18_F_129| () Bool false)
(define-fun |memory_model::choice_rf_2_3_1_22_F_130| () Bool false)
(define-fun |memory_model::choice_rf_2_3_2_2_F_131| () Bool true)
(define-fun |memory_model::choice_rf_2_4_0_12_F_132| () Bool false)
(define-fun |pdev#20$rclk$8| () (_ BitVec 7) #b1101100)
(define-fun |memory_model::choice_rf_2_4_0_16_F_133| () Bool false)
(define-fun |memory_model::choice_rf_2_4_0_20_F_134| () Bool false)
(define-fun |memory_model::choice_rf_2_4_0_34_F_135| () Bool false)
(define-fun |memory_model::choice_rf_2_4_1_8_F_136| () Bool true)
(define-fun |memory_model::choice_rf_2_4_1_18_F_137| () Bool false)
(define-fun |memory_model::choice_rf_2_4_1_22_F_138| () Bool false)
(define-fun |memory_model::choice_rf_2_4_2_2_F_139| () Bool false)
(define-fun |memory_model::choice_rf_1_2_0_10_F_140| () Bool false)
(define-fun |ldv_usb_state#1$wclk$8| () (_ BitVec 7) #b0110011)
(define-fun |ldv_usb_state#3$rclk$8| () (_ BitVec 7) #b1010011)
(define-fun |memory_model::choice_rf_1_2_1_1_F_141| () Bool true)
(define-fun |memory_model::choice_rf_1_11_0_10_F_142| () Bool false)
(define-fun |ldv_usb_state#5$rclk$8| () (_ BitVec 7) #b1100010)
(define-fun |memory_model::choice_rf_1_11_1_1_F_143| () Bool false)
(define-fun |memory_model::choice_rf_1_11_1_7_F_144| () Bool false)
(define-fun |memory_model::choice_rf_1_21_0_10_F_145| () Bool false)
(define-fun |ldv_usb_state#7$rclk$8| () (_ BitVec 7) #b1101101)
(define-fun |memory_model::choice_rf_1_21_1_1_F_146| () Bool false)
(define-fun |memory_model::choice_rf_1_21_1_7_F_147| () Bool false)
(define-fun |memory_model::choice_rf_1_21_1_17_F_148| () Bool false)
(define-fun |memory_model::choice_ws-ext_0_9_1_26_T_149| () Bool true)
(define-fun |memory_model::choice_ws-ext_0_9_2_8_T_150| () Bool true)
(define-fun |memory_model::choice_ws-ext_1_26_2_8_T_151| () Bool false)
(define-fun |memory_model::choice_ws-ext_0_7_1_4_T_152| () Bool true)
(define-fun |memory_model::choice_ws-ext_0_17_1_4_T_153| () Bool true)
(define-fun |t2#2$wclk$8| () (_ BitVec 7) #b1010101)
(define-fun |memory_model::choice_ws-ext_0_14_1_5_F_154| () Bool true)
(define-fun |memory_model::choice_ws-ext_0_11_2_1_F_155| () Bool true)
(define-fun |memory_model::choice_ws-ext_0_11_2_6_F_156| () Bool true)
(define-fun |memory_model::choice_ws-ext_0_15_2_1_F_157| () Bool true)
(define-fun |memory_model::choice_ws-ext_0_15_2_6_F_158| () Bool true)
(define-fun |memory_model::choice_ws-ext_0_25_2_1_F_159| () Bool false)
(define-fun |memory_model::choice_ws-ext_0_25_2_6_F_160| () Bool false)
(define-fun |memory_model::choice_ws-ext_0_33_2_1_F_161| () Bool false)
(define-fun |memory_model::choice_ws-ext_0_33_2_6_F_162| () Bool false)
(define-fun |memory_model::choice_ws-ext_0_12_1_8_F_163| () Bool true)
(define-fun |memory_model::choice_ws-ext_0_12_1_18_F_164| () Bool true)
(define-fun |memory_model::choice_ws-ext_0_12_1_22_F_165| () Bool true)
(define-fun |memory_model::choice_ws-ext_0_12_2_2_F_166| () Bool true)
(define-fun |memory_model::choice_ws-ext_0_16_1_8_F_167| () Bool true)
(define-fun |memory_model::choice_ws-ext_0_16_1_18_F_168| () Bool true)
(define-fun |memory_model::choice_ws-ext_0_16_1_22_F_169| () Bool true)
(define-fun |memory_model::choice_ws-ext_0_16_2_2_F_170| () Bool true)
(define-fun |memory_model::choice_ws-ext_0_20_1_8_F_171| () Bool false)
(define-fun |memory_model::choice_ws-ext_0_20_1_18_F_172| () Bool false)
(define-fun |memory_model::choice_ws-ext_0_20_1_22_F_173| () Bool false)
(define-fun |memory_model::choice_ws-ext_0_20_2_2_F_174| () Bool false)
(define-fun |memory_model::choice_ws-ext_0_34_1_8_F_175| () Bool false)
(define-fun |memory_model::choice_ws-ext_0_34_1_18_F_176| () Bool false)
(define-fun |memory_model::choice_ws-ext_0_34_1_22_F_177| () Bool false)
(define-fun |memory_model::choice_ws-ext_0_34_2_2_F_178| () Bool false)
(define-fun |memory_model::choice_ws-ext_1_8_2_2_F_179| () Bool false)
(define-fun |memory_model::choice_ws-ext_1_18_2_2_F_180| () Bool false)
(define-fun |memory_model::choice_ws-ext_1_22_2_2_F_181| () Bool false)
(define-fun |ldv_usb_state#2$wclk$8| () (_ BitVec 7) #b1010010)
(define-fun |memory_model::choice_ws-ext_0_10_1_1_F_182| () Bool true)
(define-fun |ldv_usb_state#4$wclk$8| () (_ BitVec 7) #b1010111)
(define-fun |memory_model::choice_ws-ext_0_10_1_7_F_183| () Bool true)
(define-fun |ldv_usb_state#6$wclk$8| () (_ BitVec 7) #b1101001)
(define-fun |memory_model::choice_ws-ext_0_10_1_17_F_184| () Bool true)
(define-fun t1$19$spwnclk$8 () (_ BitVec 7) #b1010000)
(define-fun |ieee80211_deregister_hw::1::status!1@1$wclk$8| () (_ BitVec 7) #b1010001)
(define-fun t2$6$spwnclk$8 () (_ BitVec 7) #b1010110)
(define-fun |ieee80211_deregister_hw::1::status!1@1#1$wclk$8| () (_ BitVec 7) #b1100011)
(define-fun |module_exit::1::status!0@1$wclk$8| () (_ BitVec 7) #b0000000)
(define-fun |__CPROVER_dead_object#1$wclk$8| () (_ BitVec 7) #b0000010)
(define-fun |__CPROVER_deallocated#1$wclk$8| () (_ BitVec 7) #b0000011)
(define-fun |__CPROVER_malloc_is_new_array#1$wclk$8| () (_ BitVec 7) #b0001000)
(define-fun |__CPROVER_malloc_object#1$wclk$8| () (_ BitVec 7) #b0001001)
(define-fun |__CPROVER_malloc_size#1$wclk$8| () (_ BitVec 7) #b0001010)
(define-fun |__CPROVER_memory_leak#1$wclk$8| () (_ BitVec 7) #b0001011)
(define-fun |__CPROVER_pipe_count#1$wclk$8| () (_ BitVec 7) #b0100101)
(define-fun |t1#1$wclk$8| () (_ BitVec 7) #b0111010)
(define-fun |t1#2$wclk$8| () (_ BitVec 7) #b0111111)
(define-fun |module_exit::1::status!0@1#1$wclk$8| () (_ BitVec 7) #b1110101)
(define-fun |t1#3$rclk$8| () (_ BitVec 7) #b1110110)
(define-fun |t1#4$rclk$8| () (_ BitVec 7) #b1110111)
)

real	0m0.323s
user	0m0.309s
sys	0m0.013s
State: AC Run_time: 0.32506847381591797